************************************************************************
file with basedata            : cm110_.bas
initial value random generator: 64114487
************************************************************************
projects                      :  1
jobs (incl. supersource/sink ):  18
horizon                       :  66
RESOURCES
  - renewable                 :  2   R
  - nonrenewable              :  2   N
  - doubly constrained        :  0   D
************************************************************************
PROJECT INFORMATION:
pronr.  #jobs rel.date duedate tardcost  MPM-Time
    1     16      0       25        9       25
************************************************************************
PRECEDENCE RELATIONS:
jobnr.    #modes  #successors   successors
   1        1          3           2   3   4
   2        1          3           5   6  12
   3        1          2          12  13
   4        1          2           9  13
   5        1          3           7   8  10
   6        1          3           9  10  15
   7        1          2          11  14
   8        1          2          14  16
   9        1          1          11
  10        1          2          11  17
  11        1          1          16
  12        1          2          15  17
  13        1          2          14  16
  14        1          2          15  17
  15        1          1          18
  16        1          1          18
  17        1          1          18
  18        1          0        
************************************************************************
REQUESTS/DURATIONS:
jobnr. mode duration  R 1  R 2  N 1  N 2
------------------------------------------------------------------------
  1      1     0       0    0    0    0
  2      1     1       5    0    0    9
  3      1     6       0    3    6    0
  4      1     3       8    0    2    0
  5      1     2       0    4    7    0
  6      1     2       0    2    0    8
  7      1     3       8    0    6    0
  8      1     8       9    0    8    0
  9      1     2       0    2    6    0
 10      1     6       0    3    0    7
 11      1     3       2    0    7    0
 12      1     9       0    4    3    0
 13      1     3       2    0    0    3
 14      1     4       0    2    0    6
 15      1    10       0    4    0    9
 16      1     1       5    0    7    0
 17      1     3       3    0    0    4
 18      1     0       0    0    0    0
************************************************************************
RESOURCEAVAILABILITIES:
  R 1  R 2  N 1  N 2
   13    7   52   46
************************************************************************
